NAME : XML100_1176_15
DIMENSION : 101
NB_CLUSTERS : 5
CLUSTERING_ALG : KMedoids
CLUSTERING_PARAMS : k(4)
CLUSTERS
1 0
2 1 4 7 13 18 26 31 35 42 46 62 74 75 77 81 82 83 87 90
3 2 6 8 11 20 22 23 27 28 29 34 43 51 55 57 65 68 70 71 73 86 89 95 98 100
4 3 5 12 14 15 21 24 25 30 33 37 38 39 41 45 47 50 53 54 58 59 61 66 72 79 84 91 93 96 97
5 9 10 16 17 19 32 36 40 44 48 49 52 56 60 63 64 67 69 76 78 80 85 88 92 94 99
EOF